language ESSENCE' 1.0
$ loaded file: carseqdata/csplib-instance-27
letting numcars=200
letting numclasses=21
letting numoptions=5
letting optMax=[1, 2, 1, 2, 1]
letting windowSize=[2, 3, 3, 5, 5]
letting numberPerClass=[2, 2, 41, 4, 13, 51, 4, 12, 2, 3, 12, 4, 1, 1, 19, 13, 1, 2, 2, 5, 6]
letting optionsRequired=[[1, 1, 0, 1, 0], [0, 0, 0, 1, 1], [0, 0, 0, 1, 0], [1, 0, 0, 1, 0], [1, 1, 0, 0, 0], [0, 1, 0, 0, 0], [0, 0, 1, 1, 0], [0, 0, 0, 0, 1], [1, 1, 1, 0, 0], [1, 0, 1, 0, 0], [0, 1, 0, 1, 0], [1, 0, 0, 0, 1], [1, 0, 1, 1, 0], [0, 1, 1, 0, 1], [1, 0, 0, 0, 0], [0, 0, 1, 0, 0], [1, 1, 1, 1, 0], [1, 1, 1, 0, 1], [0, 1, 1, 1, 0], [0, 1, 1, 0, 0], [0, 1, 0, 0, 1]]
